15 40
25
3 11 0 13
3 13 2 0
2 9 11 26
2 7 7 21
3 9 0 31
3 7 0 24
2 11 13 24
2 13 13 0
4 11 9 15
4 13 3 27
5 3 3 16
2 11 13 13
2 2 9 26
3 11 10 0
3 2 10 11
4 5 11 35
4 6 3 21
2 12 0 1
2 1 0 0
5 3 3 13
5 13 5 0
4 12 7 28
1 4 8 15
5 2 8 13
6 2 3 19
